Linux optc-01-04 4.15.0-58-generic #64-Ubuntu SMP Tue Aug 6 11:12:41 UTC 2019 x86_64 x86_64 x86_64 GNU/Linux

top - 19:11:20 up 1 day,  9:12,  0 users,  load average: 0,85, 0,97, 0,99
Tasks: 292 gesamt,   1 laufend, 149 schlafend,   0 gestoppt,   0 Zombie
%CPU(s):  7,1 be,  0,3 sy,  0,0 ni, 92,6 un,  0,0 wa,  0,0 hi,  0,0 si,  0,0 st
KiB Spch : 97514992 gesamt, 95073912 frei,   650756 belegt,  1790328 Puff/Cache
KiB Swap:  8388604 gesamt,  8388604 frei,        0 belegt. 96122672 verfü Spch 

  PID USER      PR  NI    VIRT    RES    SHR S  %CPU %MEM     ZEIT+ BEFEHL
    1 root      20   0  233836   9396   6696 S   0,0  0,0   0:11.54 systemd
    2 root      20   0       0      0      0 S   0,0  0,0   0:00.11 kthreadd
    3 root      20   0       0      0      0 I   0,0  0,0   0:02.11 kworker/0:0
    4 root       0 -20       0      0      0 I   0,0  0,0   0:00.00 kworker/0:+
    6 root      20   0       0      0      0 I   0,0  0,0   0:00.00 kworker/u3+
    7 root       0 -20       0      0      0 I   0,0  0,0   0:00.00 mm_percpu_+
    8 root      20   0       0      0      0 S   0,0  0,0   0:00.01 ksoftirqd/0
    9 root      20   0       0      0      0 I   0,0  0,0   0:11.57 rcu_sched

hard time limit: 04:10:00
hard mem limit: 55100

SLURM jobID: 2182439

@01 /nfs/optimi/kombadon/IP/miplib2017/supportcase12.mps.gz ===========
-----------------------------
Do 22. Aug 19:11:20 CEST 2019
-----------------------------
@03 1566493880
@05 7200
SCIP version 6.0.0 [precision: 8 byte] [memory: block] [mode: optimized] [LP solver: CPLEX 12.8.0.0] [GitHash: 41ab6e0014]
Copyright (C) 2002-2018 Konrad-Zuse-Zentrum fuer Informationstechnik Berlin (ZIB)

External codes: 
  Readline 7.0         GNU library for command line editing (gnu.org/s/readline)
  CPLEX 12.8.0.0       Linear Programming Solver developed by IBM (www.cplex.com)
  CppAD 20180000.0     Algorithmic Differentiation of C++ algorithms developed by B. Bell (www.coin-or.org/CppAD)
  ZLIB 1.2.11          General purpose compression library by J. Gailly and M. Adler (zlib.net)
  GMP 6.1.2            GNU Multiple Precision Arithmetic Library developed by T. Granlund (gmplib.org)
  bliss 0.73p          Computing Graph Automorphism Groups by T. Junttila and P. Kaski (http://www.tcs.hut.fi/Software/bliss/)

user parameter file <scip.set> not found - using default parameters

SCIP> 
SCIP> set load /home/optimi/bzfhende/opti/scip-opti/check/../settings/enable_treeeprofile.set
loaded parameter file </home/optimi/bzfhende/opti/scip-opti/check/../settings/enable_treeprofile.set>
SCIP> set misc referencevalue -7559.533053817
misc/referencevalue = -7559.533053817
SCIP> set limits time 7200
limits/time = 7200
SCIP> set limits nodes 2100000000
limits/nodes = 2100000000
SCIP> set limits memory 50000
limits/memory = 50000
SCIP> set lp advanced threads 1
lp/threads = 1
SCIP> set timing clocktype 1
timing/clocktype = 1
SCIP> set display freq 10000
display/freq = 10000
SCIP> set memory savefac 1.0
memory/savefac = 1
SCIP> set save /home/optimi/bzfhende/opti/scip-opti/check/treesize.estimation.jouurnal.3/bzfhende.miplib2017.215_supportcase12.scip.M640.enable_treeprofile.set
saved parameter file </home/optimi/bzfhende/opti/scip-opti/check/treesize.estimation.journal.3/bzfhende.miplib2017.215_supportcase12.scip.M640.enable_treeprofile.set>
SCIP> read /nfs/optimi/kombadon/IP/miplib2017/supportcase12.mps.gz

read problem </nfs/optimi/kombadon/IP/miplib2017/supportcase12.mps.gz>
============

original problem has 799616 variables (0 bin, 200 int, 0 impl, 799416 cont) and 166781 constraints
SCIP> display parameters

number of parameters = 2448
non-default parameter settings:
display/freq = 10000
limits/time = 7200
limits/nodes = 2100000000
limits/memory = 50000
lp/threads = 1
memory/savefac = 1
misc/referencevalue = -7559.533053817
presolving/maxrestarts = 0
estimates/profile/enabled = TRUE
estimates/profile/maxdepthfactor = 10
estimates/profile/freq = 0

SCIP> optimize

Activating tree profile data collection
feasible solution found by trivial heuristic after 2.5 seconds, objective value 0.000000e+00
presolving:
(round 1, fast)       153508 del vars, 53967 del conss, 0 add conss, 857031 chg bounds, 6448 chg sides, 0 chg coeffs, 0 upgd conss, 0 impls, 0 clqs
(round 2, fast)       395024 del vars, 93159 del conss, 0 add conss, 1098186 chg bounds, 49327 chg sides, 0 chg coeffs, 0 upgd conss, 0 impls, 0 clqs
(round 3, fast)       624731 del vars, 134911 del conss, 0 add conss, 1191846 chg bounds, 51311 chg sides, 0 chg coeffs, 0 upgd conss, 0 impls, 0 clqs
(round 4, fast)       678950 del vars, 144685 del conss, 0 add conss, 1245884 chg bounds, 52516 chg sides, 0 chg coeffs, 0 upgd conss, 0 impls, 0 clqs
(round 5, fast)       708473 del vars, 149486 del conss, 0 add conss, 1275639 chg bounds, 53082 chg sides, 0 chg coeffs, 0 upgd conss, 0 impls, 0 clqs
(round 6, fast)       718633 del vars, 151484 del conss, 0 add conss, 1285799 chg bounds, 53254 chg sides, 0 chg coeffs, 0 upgd conss, 0 impls, 0 clqs
(round 7, fast)       718633 del vars, 151603 del conss, 0 add conss, 1285799 chg bounds, 53254 chg sides, 0 chg coeffs, 0 upgd conss, 0 impls, 0 clqs
(round 8, exhaustive) 718633 del vars, 152331 del conss, 0 add conss, 1285800 chg bounds, 53254 chg sides, 0 chg coeffs, 0 upgd conss, 0 impls, 0 clqs
   (6.9s) sparsify finished: 24292/209737 (11.6%) nonzeros canceled - in total 24292 canceled nonzeros, 47526 changed coefficients, 0 added nonzeros
(round 9, exhaustive) 718633 del vars, 152331 del conss, 0 add conss, 1285800 chg bounds, 53254 chg sides, 47526 chg coeffs, 0 upgd conss, 0 impls, 0 clqs
(round 10, fast)       719240 del vars, 152331 del conss, 0 add conss, 1285800 chg bounds, 53254 chg sides, 47652 chg coeffs, 0 upgd conss, 0 impls, 0 clqs
(round 11, exhaustive) 719240 del vars, 153131 del conss, 0 add conss, 1286000 chg bounds, 53254 chg sides, 47652 chg coeffs, 0 upgd conss, 0 impls, 0 clqs
presolving (12 rounds: 12 fast, 4 medium, 4 exhaustive):
 719240 deleted vars, 153131 deleted constraints, 0 added constraints, 1286000 tightened bounds, 0 added holes, 53254 changed sides, 47652 changed coefficients
 0 implications, 0 cliques
presolved problem has 80376 variables (0 bin, 200 int, 0 impl, 80176 cont) and 13650 constraints
  13650 constraints of type <linear>
Presolving Time: 6.21
transformed 1/1 original solutions to the transformed problem space

 time | node  | left  |LP iter|LP it/n| mem |mdpt |frac |vars |cons |cols |rows |cuts |confs|strbr|  dualbound   | primalbound  |  gap   
  9.5s|     1 |     0 | 38094 |     - |2140M|   0 | 192 |  80k|  13k|  80k|  13k|   0 |   0 |   0 |-7.559533e+03 | 0.000000e+00 |    Inf 
 12.0s|     1 |     0 | 43967 |     - |2173M|   0 | 192 |  80k|  13k|  80k|  13k|  94 |   0 |   0 |-7.559533e+03 | 0.000000e+00 |    Inf 
 12.8s|     1 |     0 | 49388 |     - |2176M|   0 | 192 |  80k|  13k|  80k|  13k| 198 |   0 |   0 |-7.559533e+03 | 0.000000e+00 |    Inf 
 13.6s|     1 |     0 | 55878 |     - |2179M|   0 | 193 |  80k|  13k|  80k|  13k| 293 |   0 |   0 |-7.559533e+03 | 0.000000e+00 |    Inf 
 14.5s|     1 |     0 | 61717 |     - |2184M|   0 | 194 |  80k|  13k|  80k|  14k| 387 |   0 |   0 |-7.559533e+03 | 0.000000e+00 |    Inf 
 15.5s|     1 |     0 | 68379 |     - |2186M|   0 | 193 |  80k|  13k|  80k|  14k| 498 |   0 |   0 |-7.559533e+03 | 0.000000e+00 |    Inf 
 16.3s|     1 |     0 | 74192 |     - |2188M|   0 | 193 |  80k|  13k|  80k|  14k| 603 |   0 |   0 |-7.559533e+03 | 0.000000e+00 |    Inf 
 17.2s|     1 |     0 | 80248 |     - |2191M|   0 | 193 |  80k|  13k|  80k|  14k| 707 |   0 |   0 |-7.559533e+03 | 0.000000e+00 |    Inf 
 18.1s|     1 |     0 | 86051 |     - |2196M|   0 | 191 |  80k|  13k|  80k|  14k| 814 |   0 |   0 |-7.559533e+03 | 0.000000e+00 |    Inf 
 19.2s|     1 |     0 | 93166 |     - |2199M|   0 | 194 |  80k|  13k|  80k|  14k| 911 |   0 |   0 |-7.559533e+03 | 0.000000e+00 |    Inf 
 20.0s|     1 |     0 | 98101 |     - |2202M|   0 | 195 |  80k|  13k|  80k|  14k|1002 |   0 |   0 |-7.559533e+03 | 0.000000e+00 |    Inf 
 22.1s|     1 |     0 |102701 |     - |2203M|   0 | 193 |  80k|  13k|  80k|  14k|1046 |   0 |   0 |-7.559533e+03 | 0.000000e+00 |    Inf 
i22.6s|     1 |     0 |113391 |     - |2206M|   0 |   - |  80k|  13k|  80k|  14k|1046 |   0 |   0 |-7.559533e+03 |-7.409324e+03 |   2.03%
 31.6s|     1 |     0 |128286 |     - |2250M|   0 | 193 |  80k|  13k|  80k|  14k|1046 |   0 |   0 |-7.559533e+03 |-7.409324e+03 |   2.03%
 32.4s|     1 |     0 |133331 |     - |2251M|   0 | 193 |  80k|  13k|  80k|  14k|1093 |   0 |   0 |-7.559533e+03 |-7.409324e+03 |   2.03%
 time | node  | left  |LP iter|LP it/n| mem |mdpt |frac |vars |cons |cols |rows |cuts |confs|strbr|  dualbound   | primalbound  |  gap   
 33.1s|     1 |     0 |138143 |     - |2251M|   0 | 193 |  80k|  13k|  80k|  14k|1128 |   0 |   0 |-7.559533e+03 |-7.409324e+03 |   2.03%
SCIP nodes: 1 Estimation: -1
 39.2s|     1 |     2 |138143 |     - |2252M|   0 | 193 |  80k|  13k|  80k|  14k|1128 |   0 |  33 |-7.559533e+03 |-7.409324e+03 |   2.03%
   (40.4s) symmetry computation skipped: type (bin -, int +, cont +) does not match requirements (bin +, int -, cont -)
SCIP nodes: 2 Estimation: -1
SCIP nodes: 4 Estimation: -1
SCIP nodes: 8 Estimation: -1
p74.3s|    14 |    15 |158231 |3513.3 |2277M|   7 |   - |  80k|  13k|  80k|  13k|   0 |   0 | 260 |-7.559533e+03 |-7.437981e+03 |   1.63%
SCIP nodes: 16 Estimation: -1
SCIP nodes: 32 Estimation: -1
SCIP nodes: 64 Estimation: -1
p 160s|    78 |    79 |314362 |2620.8 |2382M|  17 |   - |  80k|  13k|  80k|  14k|   0 |   0 | 319 |-7.559533e+03 |-7.474008e+03 |   1.14%
SCIP nodes: 128 Estimation: -1
p 243s|   144 |   145 |633386 |3642.2 |2425M|  17 |   - |  80k|  13k|  80k|  14k|   0 |   3 | 339 |-7.559533e+03 |-7.491138e+03 |   0.91%
SCIP nodes: 256 Estimation: -1
L 327s|   256 |   257 |927024 |3194.0 |2473M|  40 | 154 |  80k|  13k|  80k|  14k|2345 |   6 | 357 |-7.559533e+03 |-7.491822e+03 |   0.90%
SCIP nodes: 512 Estimation: -1
N 532s|   876 |   593 |  1199k|1241.9 |2585M| 123 |  38 |  80k|  13k|  80k|  14k|3806 |   6 | 393 |-7.559533e+03 |-7.492723e+03 |   0.89%
SCIP nodes: 1024 Estimation: -1
SCIP nodes: 2048 Estimation: 5.92007e+20
L 764s|  2453 |   977 |  1522k| 575.0 |2704M| 127 |   - |  80k|  13k|  80k|  14k|5620 |   6 | 459 |-7.559533e+03 |-7.496471e+03 |   0.84%
L 768s|  2453 |   922 |  1522k| 575.0 |2714M| 127 |   - |  80k|  13k|  80k|  14k|5620 |   6 | 459 |-7.559533e+03 |-7.499925e+03 |   0.79%
L 768s|  2453 |   876 |  1522k| 575.0 |2724M| 127 |   - |  80k|  13k|  80k|  14k|5620 |   6 | 459 |-7.559533e+03 |-7.503474e+03 |   0.75%
SCIP nodes: 4096 Estimation: 8.88934e+19
SCIP nodes: 8192 Estimation: 4.2878e+19
L1468s|  8788 |  2529 |  2698k| 294.3 |3094M| 133 |  36 |  80k|  13k|  80k|  14k|8997 |  10 | 647 |-7.559533e+03 |-7.504034e+03 |   0.74%
p1595s|  9834 |  2819 |  2978k| 291.5 |3177M| 133 |   - |  80k|  13k|  80k|  14k|   0 |  10 | 698 |-7.559533e+03 |-7.504470e+03 |   0.73%
 1606s| 10000 |  2857 |  2993k| 288.1 |3193M| 133 |   - |  80k|  13k|  80k|  14k|9806 |  10 | 698 |-7.559533e+03 |-7.504470e+03 |   0.73%
SCIP nodes: 16384 Estimation: 6.37142e+19
 2984s| 20000 |  5907 |  5389k| 263.9 |3835M| 135 |   - |  80k|  13k|  80k|  14k|  17k|  60 |1004 |-7.559533e+03 |-7.504470e+03 |   0.73%
 4370s| 30000 |  9131 |  7849k| 257.9 |4488M| 138 |  42 |  80k|  13k|  80k|  14k|  23k|  70 |1272 |-7.559533e+03 |-7.504470e+03 |   0.73%
SCIP nodes: 32768 Estimation: 4.42213e+19
 time | node  | left  |LP iter|LP it/n| mem |mdpt |frac |vars |cons |cols |rows |cuts |confs|strbr|  dualbound   | primalbound  |  gap   
 5157s| 40000 | 11233 |  9695k| 239.6 |5009M| 138 |  38 |  80k|  13k|  80k|  14k|  24k|  79 |1440 |-7.559533e+03 |-7.504470e+03 |   0.73%
 6112s| 50000 | 13023 | 11691k| 231.6 |5526M| 138 |   - |  80k|  13k|  80k|  14k|  28k|  90 |1621 |-7.559533e+03 |-7.504470e+03 |   0.73%

SCIP Status        : solving was interrupted [time limit reached]
Solving Time (sec) : 7200.03
Solving Nodes      : 58468
Primal Bound       : -7.50446952334379e+03 (117 solutions)
Dual Bound         : -7.55953305373885e+03
Gap                : 0.73 %

SCIP> display statistics

SCIP Status        : solving was interrupted [time limit reached]
Total Time         :    7201.94
  solving          :    7200.03
  presolving       :       6.21 (included in solving)
  reading          :       1.91
  copying          :       3.72 (40 #copies) (minimal 0.08, maximal 0.11, average 0.09)
Original Problem   :
  Problem name     : supportcase12
  Variables        : 799616 (0 binary, 200 integer, 0 implicit integer, 799416 continuous)
  Constraints      : 166781 initial, 166781 maximal
  Objective        : minimize, 70461 non-zeros (abs.min = 1, abs.max = 1)
Presolved Problem  :
  Problem name     : t_supportcase12
  Variables        : 80376 (0 binary, 200 integer, 0 implicit integer, 80176 continuous)
  Constraints      : 13650 initial, 13703 maximal
  Objective        : minimize, 11869 non-zeros (abs.min = 1, abs.max = 1)
Presolvers         :   ExecTime  SetupTime  Calls  FixedVars   AggrVars   ChgTypes  ChgBounds   AddHoles    DelCons    AddCons   ChgSides   ChgCoefs
  boundshift       :       0.00       0.00      0          0          0          0          0          0          0          0          0          0
  convertinttobin  :       0.00       0.00      0          0          0          0          0          0          0          0          0          0
  domcol           :       0.11       0.00      2          0          0          0          0          0          0          0          0          0
  dualagg          :       0.00       0.00      0          0          0          0          0          0          0          0          0          0
  dualcomp         :       0.06       0.00      2          0          0          0          0          0          0          0          0          0
  dualinfer        :       0.00       0.00      0          0          0          0          0          0          0          0          0          0
  gateextraction   :       0.00       0.00      0          0          0          0          0          0          0          0          0          0
  implics          :       0.00       0.00      4          0          0          0          0          0          0          0          0          0
  inttobinary      :       0.00       0.00     12          0          0          0          0          0          0          0          0          0
  qpkktref         :       0.00       0.00      0          0          0          0          0          0          0          0          0          0
  redvub           :       0.00       0.00      0          0          0          0          0          0          0          0          0          0
  sparsify         :       0.59       0.00      2          0          0          0          0          0          0          0          0      47526
  stuffing         :       0.00       0.00      0          0          0          0          0          0          0          0          0          0
  symbreak         :       0.00       0.00      0          0          0          0          0          0          0          0          0          0
  symmetry         :       0.00       0.00      0          0          0          0          0          0          0          0          0          0
  trivial          :       0.07       0.00     12          0          0          0          0          0          0          0          0          0
  tworowbnd        :       0.00       0.00      0          0          0          0          0          0          0          0          0          0
  dualfix          :       0.24       0.00     12     149843          0          0          0          0          0          0          0          0
  genvbounds       :       0.00       0.00      0          0          0          0          0          0          0          0          0          0
  orbitalfixing    :       0.00       0.00      0          0          0          0          0          0          0          0          0          0
  probing          :       0.00       0.01      1          0          0          0          0          0          0          0          0          0
  pseudoobj        :       0.04       0.00      8          0          0          0          0          0          0          0          0          0
  vbounds          :       0.00       0.00      0          0          0          0          0          0          0          0          0          0
  linear           :       3.72       0.35     16     466957     102440          0    1286000          0     153131          0      53254        126
  bounddisjunction :       0.00       0.00      0          0          0          0          0          0          0          0          0          0
  benders          :       0.00       0.00      0          0          0          0          0          0          0          0          0          0
  components       :       0.05       0.00      1          0          0          0          0          0          0          0          0          0
  root node        :          -          -      -          0          -          -          0          -          -          -          -          -
Constraints        :     Number  MaxNumber  #Separate #Propagate    #EnfoLP    #EnfoRelax  #EnfoPS    #Check   #ResProp    Cutoffs    DomReds       Cuts    Applied      Conss   Children
  benderslp        :          0          0          0          0      37261          0          0       3838          0          0          0          0          0          0          0
  integral         :          0          0          0          0      37261          0          0       3838          0          0     219569          0          0        338      73750
  linear           :      13650+     13697         12     379127          0          0          0       3832      16170       3419  144257617          0          0          0          0
  bounddisjunction :          0+        31          0      18981          0          0          0          0          1         29          0          0          0          0          0
  benders          :          0          0          0          0          0          0          0        120          0          0          0          0          0          0          0
  countsols        :          0          0          0          0          0          0          0        120          0          0          0          0          0          0          0
  components       :          0          0          0          0          0          0          0          0          0          0          0          0          0          0          0
Constraint Timings :  TotalTime  SetupTime   Separate  Propagate     EnfoLP     EnfoPS     EnfoRelax   Check    ResProp    SB-Prop
  benderslp        :       0.02       0.00       0.00       0.00       0.02       0.00       0.00       0.00       0.00       0.00
  integral         :     182.74       0.00       0.00       0.00     182.73       0.00       0.00       0.01       0.00       0.00
  linear           :     468.98       0.35       0.09     463.53       0.00       0.00       0.00       1.40       0.03       3.58
  bounddisjunction :       0.05       0.00       0.00       0.05       0.00       0.00       0.00       0.00       0.00       0.00
  benders          :       0.00       0.00       0.00       0.00       0.00       0.00       0.00       0.00       0.00       0.00
  countsols        :       0.00       0.00       0.00       0.00       0.00       0.00       0.00       0.00       0.00       0.00
  components       :       0.10       0.00       0.00       0.09       0.00       0.00       0.00       0.00       0.00       0.01
Propagators        : #Propagate   #ResProp    Cutoffs    DomReds
  dualfix          :          2          0          0          0
  genvbounds       :          0          0          0          0
  nlobbt           :          0          0          0          0
  obbt             :          0          0          0          0
  orbitalfixing    :          1          0          0          0
  probing          :          0          0          0          0
  pseudoobj        :     270845          0          0          0
  redcost          :      90140          0          0     254491
  rootredcost      :          9          0          0          0
  vbounds          :     416523          0          0          0
Propagator Timings :  TotalTime  SetupTime   Presolve  Propagate    ResProp    SB-Prop
  dualfix          :       0.24       0.00       0.24       0.00       0.00       0.00
  genvbounds       :       0.29       0.00       0.00       0.27       0.00       0.02
  nlobbt           :       0.00       0.00       0.00       0.00       0.00       0.00
  obbt             :       0.00       0.00       0.00       0.00       0.00       0.00
  orbitalfixing    :       0.32       0.00       0.00       0.31       0.00       0.01
  probing          :       0.01       0.01       0.00       0.00       0.00       0.00
  pseudoobj        :       2.48       0.00       0.04       2.44       0.00       0.00
  redcost          :     177.51       0.00       0.00     177.51       0.00       0.00
  rootredcost      :       0.29       0.00       0.00       0.29       0.00       0.00
  vbounds          :       0.34       0.00       0.00       0.31       0.00       0.03
Conflict Analysis  :       Time      Calls    Success    DomReds  Conflicts   Literals    Reconvs ReconvLits   Dualrays   Nonzeros   LP Iters   (pool size: [10000,10000])
  propagation      :       0.01         29         29          -         29       77.8          0        0.0          -          -          -
  infeasible LP    :       0.00          0          0          -          0        0.0          0        0.0          0        0.0          0
  bound exceed. LP :      95.99       2696       2578          -        105       54.7          0        0.0       2578     1902.1      40234
  strong branching :       0.00          0          0          -          0        0.0          0        0.0          -          -          0
  pseudo solution  :       0.00          0          0          -          0        0.0          0        0.0          -          -          -
  applied globally :       0.00          -          -          0         19       26.3          -          -       2578          -          -
  applied locally  :          -          -          -          0         77       78.0          -          -          0          -          -
Separators         :   ExecTime  SetupTime      Calls    Cutoffs    DomReds       Cuts    Applied      Conss
  cut pool         :       1.97                  7312          -          -     138919          -          -    (maximal pool size: 12722)
  aggregation      :       1.93       0.00         87          0          0         49          0          0
  cgmip            :       0.00       0.00          0          0          0          0          0          0
  clique           :       0.00       0.00          1          0          0          0          0          0
  closecuts        :       0.00       0.00          0          0          0          0          0          0
  cmir             :       0.00       0.00          0          0          0          0       5850          0
  convexproj       :       0.00       0.00          0          0          0          0          0          0
  disjunctive      :       0.00       0.00          0          0          0          0          0          0
  eccuts           :       0.00       0.00          0          0          0          0          0          0
  flowcover        :       0.00       0.00          0          0          0          0      15598          0
  gauge            :       0.00       0.00          0          0          0          0          0          0
  gomory           :       1.05       0.00         87          0          0         95      13941          0
  impliedbounds    :       0.00       0.00          0          0          0          0          0          0
  intobj           :       0.00       0.00          0          0          0          0          0          0
  mcf              :       1.64       0.00          1          0          0          0          0          0
  oddcycle         :       0.00       0.00          0          0          0          0          0          0
  rapidlearning    :       0.00       0.00          0          0          0          0          0          0
  strongcg         :       0.48       0.00         43          0          0          0          0          0
  zerohalf         :       1.03       0.00         84          0          0          0          0          0
Pricers            :   ExecTime  SetupTime      Calls       Vars
  problem variables:       0.00          -          0          0
Branching Rules    :   ExecTime  SetupTime   BranchLP  BranchExt   BranchPS    Cutoffs    DomReds       Cuts      Conss   Children
  allfullstrong    :       0.00       0.00          0          0          0          0          0          0          0          0
  cloud            :       0.00       0.00          0          0          0          0          0          0          0          0
  distribution     :       0.00       0.00          0          0          0          0          0          0          0          0
  fullstrong       :       0.00       0.00          0          0          0          0          0          0          0          0
  inference        :       0.00       0.00          0          0          0          0          0          0          0          0
  leastinf         :       0.00       0.00          0          0          0          0          0          0          0          0
  lookahead        :       0.00       0.00          0          0          0          0          0          0          0          0
  mostinf          :       0.00       0.00          0          0          0          0          0          0          0          0
  multaggr         :       0.00       0.00          0          0          0          0          0          0          0          0
  nodereopt        :       0.00       0.00          0          0          0          0          0          0          0          0
  pscost           :       0.00       0.00          0          0          0          0          0          0          0          0
  random           :       0.00       0.00          0          0          0          0          0          0          0          0
  relpscost        :     182.61       0.00      37261          0          0          0     219569          0        360      73750
Primal Heuristics  :   ExecTime  SetupTime      Calls      Found       Best
  LP solutions     :       0.00          -          -          0          0
  relax solutions  :       0.00          -          -          0          0
  pseudo solutions :       0.00          -          -          0          0
  strong branching :       0.01          -          -          0          0
  actconsdiving    :       0.00       0.00          0          0          0
  alns             :      75.83       0.00         17          5          5
  bound            :       0.00       0.00          0          0          0
  clique           :       0.00       0.00          0          0          0
  coefdiving       :     147.45       0.00         84          0          0
  completesol      :       0.00       0.00          0          0          0
  conflictdiving   :       0.00       0.00          0          0          0
  crossover        :      69.74       0.00          5          5          0
  dins             :       0.00       0.00          0          0          0
  distributiondivin:     101.46       0.00         84          0          0
  dualval          :       0.00       0.00          0          0          0
  farkasdiving     :       0.00       0.00          0          0          0
  feaspump         :       8.10       0.00          1          0          0
  fixandinfer      :       0.00       0.00          0          0          0
  fracdiving       :      31.75       0.00         84          0          0
  gins             :       0.24       0.00          0          0          0
  guideddiving     :      88.02       0.00         84          0          0
  indicator        :       0.07       0.00          0          0          0
  intdiving        :       0.00       0.00          0          0          0
  intshifting      :      10.87       0.00        116          1          1
  linesearchdiving :      74.95       0.00         84          0          0
  localbranching   :       0.00       0.00          0          0          0
  locks            :       0.00       0.00          0          0          0
  lpface           :       0.65       0.00          0          0          0
  mpec             :       0.00       0.00          0          0          0
  multistart       :       0.00       0.00          0          0          0
  mutation         :       0.00       0.00          0          0          0
  nlpdiving        :       0.00       0.00          0          0          0
  objpscostdiving  :    1283.32       0.00         43         43          0
  octane           :       0.00       0.00          0          0          0
  ofins            :       0.01       0.00          0          0          0
  oneopt           :       0.35       0.00         10          0          0
  proximity        :       0.00       0.00          0          0          0
  pscostdiving     :      59.02       0.00         84          4          4
  randrounding     :       3.64       0.00       3714          0          0
  rens             :       0.00       0.00          0          0          0
  reoptsols        :       0.00       0.00          0          0          0
  repair           :       0.00       0.00          0          0          0
  rins             :     132.80       0.00         19         16          1
  rootsoldiving    :     197.04       0.00         42         42          0
  rounding         :       2.12       0.00       2844          0          0
  shiftandpropagate:       0.00       0.00          0          0          0
  shifting         :       2.29       0.00       1204          0          0
  simplerounding   :       0.08       0.00          0          0          0
  subnlp           :       0.03       0.00          0          0          0
  trivial          :       1.14       0.00          2          1          1
  trivialnegation  :       0.00       0.00          0          0          0
  trysol           :       0.08       0.00          0          0          0
  twoopt           :       0.00       0.00          0          0          0
  undercover       :       0.00       0.00          0          0          0
  vbounds          :       0.01       0.00          0          0          0
  veclendiving     :     153.03       0.00         84          0          0
  zeroobj          :       0.00       0.00          0          0          0
  zirounding       :       0.64       0.00       1000          0          0
  other solutions  :          -          -          -          0          -
Diving Statistics  :      Calls      Nodes   LP Iters Backtracks  Conflicts   MinDepth   MaxDepth   AvgDepth  RoundSols  NLeafSols  MinSolDpt  MaxSolDpt  AvgSolDpt
  actconsdiving    :          0          -          -          -          -          -          -          -          -          -          -          -          -
  coefdiving       :         84       4366      63831       1586        541         83        157      118.3          0          -          -          -          -
  conflictdiving   :          0          -          -          -          -          -          -          -          -          -          -          -          -
  distributiondivin:         84       3678     322957        350        248         53        164      122.5          0          -          -          -          -
  farkasdiving     :          0          -          -          -          -          -          -          -          -          -          -          -          -
  fracdiving       :         84       6427     156656        183         87        115        236      160.7          0          -          -          -          -
  guideddiving     :         84       5962     209520        857        457         89        227      143.3          0          -          -          -          -
  linesearchdiving :         84       4423     188123        681        260         89        186      131.7          0          -          -          -          -
  pscostdiving     :         84       7088     500350         73         94        112        216      161.2          0          4        203        216      212.5
  veclendiving     :         84       4146     232077       1412        665         89        153      114.0          0          -          -          -          -
Neighborhoods      :      Calls  SetupTime  SolveTime SolveNodes       Sols       Best       Exp3  EpsGreedy        UCB TgtFixRate  Opt  Inf Node Stal  Sol  Usr Othr Actv
  rens             :          1       0.00       0.00          0          0          0    0.00000   -1.00000    0.06800      0.900    0    0    0    0    0    0    1    1
  rins             :          2       0.46       9.32         76          0          0    0.00000   -1.00000    0.47157      0.850    0    1    0    1    0    0    0    1
  mutation         :          1       0.24       3.27        136          0          0    0.00000   -1.00000    0.43200      0.900    0    0    0    1    0    0    0    1
  zeroobjective    :          9       2.01      27.60        344          2          2    0.00000   -1.00000    0.55323      0.871    2    2    0    5    0    0    0    1
  crossover        :          4       0.97      29.72        169          3          3    0.00000   -1.00000    0.55668      0.822    0    1    0    2    1    0    0    1
  localbranching   :          0       0.00       0.00          0          0          0    0.00000   -1.00000    1.00000      0.900    0    0    0    0    0    0    0    0
  proximity        :          0       0.00       0.00          0          0          0    0.00000   -1.00000    1.00000      0.900    0    0    0    0    0    0    0    0
  dins             :          0       0.00       0.00          0          0          0    0.00000   -1.00000    1.00000      0.900    0    0    0    0    0    0    0    0
LP                 :       Time      Calls Iterations  Iter/call   Iter/sec  Time-0-It Calls-0-It    ItLimit
  primal LP        :    1773.97       1674          0       0.00       0.00    1773.97       1674
  dual LP          :    1734.92      74287   11401184     180.61    6571.59      58.13      11160
  lex dual LP      :       0.00          0          0       0.00          -
  barrier LP       :       0.00          0          0       0.00          -       0.00          0
  resolve instable :       0.00          0          0       0.00          -
  diving/probing LP:    1601.94       6396    2390958     373.82    1492.54
  strong branching :     139.50       1816     874588     481.60    6269.45          -          -       1414
    (at root node) :          -         33      28967     877.79          -
  conflict analysis:      30.66       4024      40234      10.00    1312.26
B&B Tree           :
  number of runs   :          1
  nodes            :      58468 (36875 internal, 21593 leaves)
  feasible leaves  :          0
  infeas. leaves   :         49
  objective leaves :      21543
  nodes (total)    :      58468 (36875 internal, 21593 leaves)
  nodes left       :      14984
  max depth        :        138
  max depth (total):        138
  backtracks       :       2833 (4.8%)
  early backtracks :          0 (0.0%)
  nodes exc. ref.  :      58467 (100.0%)
  delayed cutoffs  :          0
  repropagations   :          0 (0 domain reductions, 0 cutoffs)
  avg switch length:       3.29
  switching time   :    1950.61
Root Node          :
  First LP value   : -7.55953305373885e+03
  First LP Iters   :      38094 (25061.84 Iter/sec)
  First LP Time    :       1.52
  Final Dual Bound : -7.55953305373885e+03
  Final Root Iters :     112558
  Root LP Estimate : -7.48337645950505e+03
Solution           :
  Solutions found  :        117 (12 improvements)
  First Solution   : +0.00000000000000e+00   (in run 1, after 0 nodes, 1.39 seconds, depth 0, found by <trivial>)
  Gap First Sol.   :   infinite
  Gap Last Sol.    :       0.73 %
  Primal Bound     : -7.50446952334379e+03   (in run 1, after 9834 nodes, 1595.44 seconds, depth 203, found by <pscostdiving>)
  Dual Bound       : -7.55953305373885e+03
  Gap              :       0.73 %
  Avg. Gap         :       1.08 % (7758.25 primal-dual integral)
  Tree Data        : 73751 nodes (58767 visited, 36875 inner, 21892 leaves, 14984 open), progress: 0.0000
Tree Estimation    :       estim       value       trend  resolution      smooth
  wbe              : 55425995796099625499230208           -           -           -           -
  tree profile     : 44221254055639113728           -           -           -           -
  gap              :      117534     0.99272     0.00000          32      117462
  progress         :      117534     0.00000     0.00000          32      117462
  leaf-frequency   :     1283399     0.37251     0.00001          32     1359499
  ssg              :      117534     0.98068    -0.00000          32      117462
  open-nodes       :      117534 14984.00000    10.71387          32      117462


SCIP> checksol

check best solution
solution is feasible in original problem
Violation          :    absolute    relative
  bounds           : 3.99680e-15 3.99680e-15
  integrality      : 0.00000e+00           -
  LP rows          : 6.59384e-12 6.59384e-12
  constraints      : 6.59384e-12 6.59384e-12

SCIP> write sol /local/tmp/bzfhende-tmpdir/bzfhende.miplib2017.215_supportcase12..scip.M640.enable_treeprofile.sol

written solution information to file </local/tmp/bzfhende-tmpdir/bzfhende.miplib2017.215_supportcase12.scip.M640.enable_treeprofile.sol>

SCIP> quit

Disabling tree profile data collection
Read MPS: 1
MIP has 799616 vars and 166781 constraints
Read SOL: 1
Objective value computed by solver: -7504.46952334379

Integrality tolerance: 1/10000
Linear tolerance: 1/10000
Objective tolerance: 1/10000

Check SOL: Integrality 1 Constraints 1 Objective 1
Maximum violations: Integrality 0 Constraints 3.1959e-11 Objective 1.1336e-12
@04 1566501131
-----------------------------
Do 22. Aug 21:12:11 CEST 2019
-----------------------------

=ready=
